100 100 100
50
17 91 97
92 27 17
88 37 41
95 59 38
66 27 89
73 18 84
55 64 1
80 4 88
57 76 45
59 98 60
54 5 22
23 73 3
30 72 23
79 2 7
57 48 65
21 72 93
2 94 49
12 67 89
97 33 39
75 32 50
31 70 17
25 21 61
38 48 9
21 34 2
25 14 58
92 13 8
84 93 56
61 19 39
11 55 95
24 8 44
44 72 51
10 91 94
52 70 37
71 32 4
93 72 2
88 53 34
54 73 45
47 70 44
24 97 61
49 27 48
70 17 84
79 69 83
84 35 9
88 85 10
14 14 96
15 33 82
63 15 3
38 15 8
99 26 84
51 41 64
